120 150

51
54
45
52
54
57
49
53
47
50
49
41
60
43
44
54
55
59
46
52
53
45
59
40
56
52
51
46
59
60
47
53
44
58
41
53
51
45
53
45
54
41
57
41
55
45
52
45
58
45
47
60
48
43
42
47
60
50
41
59
59
44
53
47
45
47
50
58
50
47
53
43
42
51
48
51
52
47
51
42
49
48
60
46
53
52
45
53
44
47
53
50
52
57
55
51
44
55
43
52
53
50
47
51
56
60
47
43
48
48
54
60
43
47
43
57
58
41
60
60